SYSTEM = DIPOLE RUNS
# Must be standard in runs that will be compared
  PREC  = Accurate #Normal, Low, Accurate
  LREAL = Auto
  EDIFF = 1E-5  #eV, default 1E-4, break SCF loop
# May be changed to tune speed/convergence and still compare calcs of different parameters
  NCORE = 4    #SQRT(threads)
  ALGO  = Fast #Very_Fast = IALGO 48, Normal = IALGO 38, Fast = some of each
  NELM  = 400  #number of electronic steps
  ISYM  = 0    #symmetry treatment
  ISTART = 0   #1 if restart from WAVECAR
# System specific and extremely important to confirm
  ISPIN = 2     #spin polarized calculation? 1= no, restricted, 2=yes, unrestricted
  ENCUT = 544   #in eV, should be higher than max ENMAX in POTCARs
  ISMEAR = 0    #2 for metals, -5 for for insulator/semiconductor, 0 if molecule
  SIGMA = 0.003   #broadening in eV. 0.2 for metals, 0.003 for molecules and semiconductors (oxides)
  GGA  = PE
# Parameters that specify the type of calculation
  IBRION = -1    #ionic relax: 0-MD 1-quasi-New 2-CG 5-frequency calc
  NSW  = 0    #number of steps for IOM
  POTIM = 0.5   #step width of IOM, or time step in MD
  EDIFFG = -0.01  #stopping-criterion for IOM, negative in eV/A
  ISIF  = 2    #relaxation DOF; 2 for atom pos. only, 7 for cell volume (keep shape), 3 for shape change
# Control output files
  LWAVE = .FALSE. #write wavefunction file WAVECAR or not
  LCHARG = .FALSE. #write charge density files CHGCAR/CHG or not
  LVTOT = .FALSE. #write local potential (with Vxc) file LOCPOT or not
  LVHAR = .FALSE. #write local potential (w/o Vxc) LOCPOT or not
# Add-on settings specific for system (U terms, NELECT, Dipole corrections)
  IVDW  = 0    #12 if D3, 21 if TS
  LDIPOL = .TRUE.  #correct energy of net dipole moment
  IDIPOL = 3    #x,y,z or all
  DIPOL = 0.5 0.5 0.1
